NAME : portcgen-23-32
COMMENT : portcgen N=23, seed=32
TYPE : TSP
DIMENSION : 23
EDGE_WEIGHT_TYPE : EUC_2D
NODE_COORD_SECTION
1 -127042 -392501
2 -14176 -34257
3 -89274 255330
4 209861 -133512
5 -68108 -179419
6 -21297 -178021
7 -65943 157440
8 -6634 66617
9 31680 204369
10 -345664 -53695
11 -275768 48287
12 492374 -207266
13 -288429 31560
14 83974 -119466
15 -103447 -175314
16 -226420 -159806
17 -113341 -123471
18 232438 -117246
19 103596 283111
20 9247 43816
21 42570 -71194
22 155865 33300
23 -71195 55559
